Bi4                                     
   1.00000000000000     
     4.3664811210045835   -0.0000000000000001    0.0000000000000000
    -2.1832405605022918    3.7814838764134606    0.0000000000000000
     0.0000000000000000    0.0000000000000000   19.0000000000000000
   Bi
     4
Direct
  0.3333330000000032  0.6666669999999968  0.2730790361311790
  0.0000000000000000  0.0000000000000000  0.3637838957355797
  0.3333330000000032  0.6666669999999968  0.5324481042644251
  0.0000000000000000  0.0000000000000000  0.6231529638688187
